(set-info :source |printed by MathSAT|)
(declare-fun |.x{18}| () Int)
(declare-fun |.x{19}| () Int)
(declare-fun |.x{20}| () Int)
(declare-fun |.y{3}| () Int)
(declare-fun |.loc{5}| () Bool)
(declare-fun |.loc{7}| () Bool)
(declare-fun |.loc{6}| () Bool)
(declare-fun |.loc{8}| () Bool)
(define-fun .def_18 () Bool (! |.loc{6}| :next |.loc{8}|))
(define-fun .def_112 () Bool (not .def_18))
(define-fun .def_16 () Bool (! |.loc{5}| :next |.loc{7}|))
(define-fun .def_120 () Bool (and .def_16 .def_112))
(define-fun .def_10 ((i_3 Int)) Int (! i_3 :next |.x{19}|))
(define-fun .def_118 ((i_3 Int)) Bool (= (.def_10 i_3) 0))
(define-fun .def_12 ((k_4 Int)) Int (! k_4 :next |.x{20}|))
(define-fun .def_8 ((n_4 Int)) Int (! n_4 :next |.x{18}|))
(define-fun .def_115 ((n_4 Int) (k_4 Int)) Bool (<= (.def_8 n_4) (.def_12 k_4)))
(define-fun .def_116 ((n_4 Int) (k_4 Int)) Bool (not (.def_115 n_4 k_4)))
(define-fun .def_114 ((k_4 Int)) Bool (<= 0 (.def_12 k_4)))
(define-fun .def_117 ((n_4 Int) (k_4 Int)) Bool (and (.def_114 k_4) (.def_116 n_4 k_4)))
(define-fun .def_119 ((n_4 Int) (k_4 Int) (i_3 Int)) Bool (and (.def_117 n_4 k_4) (.def_118 i_3)))
(define-fun .def_121 ((n_4 Int) (k_4 Int) (i_3 Int)) Bool (! (and (.def_119 n_4 k_4 i_3) .def_120) :init true))
(define-fun .def_121 ((n_4 Int) (k_4 Int) (i_3 Int)) Bool (.def_121 n_4 k_4 i_3))
(define-fun .def_108 ((n_4 Int)) Bool (= (.def_8 n_4) |.x{18}|))
(define-fun .def_14 ((ak_4 Int)) Int (! ak_4 :next |.y{3}|))
(define-fun .def_105 ((ak_4 Int)) Bool (= |.x{20}| (.def_14 ak_4)))
(define-fun .def_103 ((k_4 Int)) Bool (= |.x{19}| (.def_12 k_4)))
(define-fun .def_33 ((n_4 Int) (i_3 Int)) Bool (<= (.def_8 n_4) (.def_10 i_3)))
(define-fun .def_99 ((n_4 Int) (i_3 Int)) Bool (and .def_16 (.def_33 n_4 i_3)))
(define-fun .def_100 ((n_4 Int) (i_3 Int)) Bool (and (.def_33 n_4 i_3) (.def_99 n_4 i_3)))
(define-fun .def_101 ((n_4 Int) (i_3 Int)) Bool (and |.loc{8}| (.def_100 n_4 i_3)))
(define-fun .def_28 () Bool (not |.loc{7}|))
(define-fun .def_102 ((n_4 Int) (i_3 Int)) Bool (and .def_28 (.def_101 n_4 i_3)))
(define-fun .def_104 ((n_4 Int) (k_4 Int) (i_3 Int)) Bool (and (.def_102 n_4 i_3) (.def_103 k_4)))
(define-fun .def_106 ((n_4 Int) (k_4 Int) (i_3 Int) (ak_4 Int)) Bool (and (.def_104 n_4 k_4 i_3) (.def_105 ak_4)))
(define-fun .def_95 () Int (* (- 1) |.x{19}|))
(define-fun .def_96 ((i_3 Int)) Int (+ (.def_10 i_3) .def_95))
(define-fun .def_97 ((i_3 Int)) Bool (= (.def_96 i_3) (- 1)))
(define-fun .def_93 ((k_4 Int)) Bool (= (.def_12 k_4) |.x{20}|))
(define-fun .def_91 ((ak_4 Int)) Bool (= (.def_14 ak_4) |.y{3}|))
(define-fun .def_20 () Bool (not |.loc{8}|))
(define-fun .def_89 () Bool (and |.loc{7}| .def_20))
(define-fun .def_88 () Bool (not .def_16))
(define-fun .def_90 () Bool (and .def_88 .def_89))
(define-fun .def_92 ((ak_4 Int)) Bool (and .def_90 (.def_91 ak_4)))
(define-fun .def_94 ((k_4 Int) (ak_4 Int)) Bool (and (.def_92 ak_4) (.def_93 k_4)))
(define-fun .def_98 ((k_4 Int) (i_3 Int) (ak_4 Int)) Bool (and (.def_94 k_4 ak_4) (.def_97 i_3)))
(define-fun .def_107 ((n_4 Int) (k_4 Int) (i_3 Int) (ak_4 Int)) Bool (or (.def_98 k_4 i_3 ak_4) (.def_106 n_4 k_4 i_3 ak_4)))
(define-fun .def_109 ((n_4 Int) (k_4 Int) (i_3 Int) (ak_4 Int)) Bool (and (.def_107 n_4 k_4 i_3 ak_4) (.def_108 n_4)))
(define-fun .def_86 ((n_1 Int)) Bool (= |.x{18}| n_1))
(define-fun .def_84 ((i_0 Int)) Bool (= |.x{19}| i_0))
(define-fun .def_82 ((k_1 Int)) Bool (= |.x{20}| k_1))
(define-fun .def_79 ((ak_1 Int)) Bool (= |.y{3}| ak_1))
(define-fun .def_77 ((ak_1 Int) (ak_4 Int)) Bool (= (.def_14 ak_4) ak_1))
(define-fun .def_73 ((k_4 Int) (k_1 Int)) Bool (= (.def_12 k_4) k_1))
(define-fun .def_70 ((i_0 Int) (i_3 Int)) Bool (= (.def_10 i_3) i_0))
(define-fun .def_68 ((n_4 Int) (n_1 Int)) Bool (= (.def_8 n_4) n_1))
(define-fun .def_64 ((i_0 Int) (k_1 Int)) Bool (= k_1 i_0))
(define-fun .def_65 ((i_0 Int) (k_1 Int)) Bool (not (.def_64 i_0 k_1)))
(define-fun .def_66 ((i_0 Int) (k_1 Int)) Bool (and .def_16 (.def_65 i_0 k_1)))
(define-fun .def_69 ((n_4 Int) (n_1 Int) (i_0 Int) (k_1 Int)) Bool (and (.def_66 i_0 k_1) (.def_68 n_4 n_1)))
(define-fun .def_71 ((n_4 Int) (n_1 Int) (i_0 Int) (i_3 Int) (k_1 Int)) Bool (and (.def_69 n_4 n_1 i_0 k_1) (.def_70 i_0 i_3)))
(define-fun .def_72 ((n_4 Int) (n_1 Int) (i_0 Int) (i_3 Int) (k_1 Int)) Bool (and .def_20 (.def_71 n_4 n_1 i_0 i_3 k_1)))
(define-fun .def_74 ((n_4 Int) (n_1 Int) (k_4 Int) (i_0 Int) (i_3 Int) (k_1 Int)) Bool (and (.def_72 n_4 n_1 i_0 i_3 k_1) (.def_73 k_4 k_1)))
(define-fun .def_75 ((n_4 Int) (n_1 Int) (k_4 Int) (i_0 Int) (i_3 Int) (k_1 Int)) Bool (and .def_28 (.def_74 n_4 n_1 k_4 i_0 i_3 k_1)))
(define-fun .def_78 ((n_4 Int) (n_1 Int) (k_4 Int) (i_0 Int) (i_3 Int) (k_1 Int) (ak_4 Int) (ak_1 Int)) Bool (and (.def_75 n_4 n_1 k_4 i_0 i_3 k_1) (.def_77 ak_1 ak_4)))
(define-fun .def_80 ((n_4 Int) (n_1 Int) (k_4 Int) (i_0 Int) (i_3 Int) (k_1 Int) (ak_1 Int) (ak_4 Int)) Bool (and (.def_78 n_4 n_1 k_4 i_0 i_3 k_1 ak_4 ak_1) (.def_79 ak_1)))
(define-fun .def_34 ((n_4 Int) (i_3 Int)) Bool (not (.def_33 n_4 i_3)))
(define-fun .def_81 ((n_4 Int) (n_1 Int) (k_4 Int) (i_0 Int) (i_3 Int) (k_1 Int) (ak_4 Int) (ak_1 Int)) Bool (and (.def_34 n_4 i_3) (.def_80 n_4 n_1 k_4 i_0 i_3 k_1 ak_1 ak_4)))
(define-fun .def_83 ((n_4 Int) (n_1 Int) (k_4 Int) (i_0 Int) (i_3 Int) (k_1 Int) (ak_1 Int) (ak_4 Int)) Bool (and (.def_81 n_4 n_1 k_4 i_0 i_3 k_1 ak_4 ak_1) (.def_82 k_1)))
(define-fun .def_85 ((n_4 Int) (n_1 Int) (k_4 Int) (i_0 Int) (i_3 Int) (k_1 Int) (ak_4 Int) (ak_1 Int)) Bool (and (.def_83 n_4 n_1 k_4 i_0 i_3 k_1 ak_1 ak_4) (.def_84 i_0)))
(define-fun .def_87 ((n_4 Int) (n_1 Int) (k_4 Int) (i_0 Int) (i_3 Int) (k_1 Int) (ak_1 Int) (ak_4 Int)) Bool (and (.def_85 n_4 n_1 k_4 i_0 i_3 k_1 ak_4 ak_1) (.def_86 n_1)))
(define-fun .def_110 ((n_4 Int) (n_1 Int) (k_4 Int) (i_0 Int) (i_3 Int) (k_1 Int) (ak_4 Int) (ak_1 Int)) Bool (or (.def_87 n_4 n_1 k_4 i_0 i_3 k_1 ak_1 ak_4) (.def_109 n_4 k_4 i_3 ak_4)))
(define-fun .def_60 ((n_2 Int)) Bool (= |.x{18}| n_2))
(define-fun .def_58 ((i_1 Int)) Bool (= |.x{19}| i_1))
(define-fun .def_56 ((i_1 Int)) Bool (= |.x{20}| i_1))
(define-fun .def_43 ((i_1 Int)) Real (* (/ 1 2) (to_real i_1)))
(define-fun .def_44 ((i_1 Int)) Int (to_int (.def_43 i_1)))
(define-fun .def_50 ((i_1 Int)) Int (* 2 (.def_44 i_1)))
(define-fun .def_51 ((i_1 Int)) Int (* (- 1) i_1))
(define-fun .def_52 ((i_1 Int)) Int (+ (.def_51 i_1) (.def_50 i_1)))
(define-fun .def_53 ((i_1 Int)) Int (+ |.y{3}| (.def_52 i_1)))
(define-fun .def_54 ((i_1 Int)) Bool (= (.def_53 i_1) 0))
(define-fun .def_37 ((ak_2 Int) (ak_4 Int)) Bool (= (.def_14 ak_4) ak_2))
(define-fun .def_31 ((k_4 Int) (k_2 Int)) Bool (= (.def_12 k_4) k_2))
(define-fun .def_26 ((i_3 Int) (i_1 Int)) Bool (= (.def_10 i_3) i_1))
(define-fun .def_23 ((n_2 Int) (n_4 Int)) Bool (= (.def_8 n_4) n_2))
(define-fun .def_21 () Bool (and .def_16 .def_20))
(define-fun .def_24 ((n_2 Int) (n_4 Int)) Bool (and .def_21 (.def_23 n_2 n_4)))
(define-fun .def_27 ((n_2 Int) (n_4 Int) (i_3 Int) (i_1 Int)) Bool (and (.def_24 n_2 n_4) (.def_26 i_3 i_1)))
(define-fun .def_29 ((n_2 Int) (n_4 Int) (i_3 Int) (i_1 Int)) Bool (and (.def_27 n_2 n_4 i_3 i_1) .def_28))
(define-fun .def_32 ((n_2 Int) (n_4 Int) (k_4 Int) (i_3 Int) (i_1 Int) (k_2 Int)) Bool (and (.def_29 n_2 n_4 i_3 i_1) (.def_31 k_4 k_2)))
(define-fun .def_35 ((n_2 Int) (n_4 Int) (k_4 Int) (i_3 Int) (i_1 Int) (k_2 Int)) Bool (and (.def_32 n_2 n_4 k_4 i_3 i_1 k_2) (.def_34 n_4 i_3)))
(define-fun .def_38 ((n_2 Int) (n_4 Int) (k_4 Int) (ak_2 Int) (i_3 Int) (i_1 Int) (k_2 Int) (ak_4 Int)) Bool (and (.def_35 n_2 n_4 k_4 i_3 i_1 k_2) (.def_37 ak_2 ak_4)))
(define-fun .def_55 ((n_2 Int) (n_4 Int) (k_4 Int) (ak_2 Int) (i_3 Int) (i_1 Int) (k_2 Int) (ak_4 Int)) Bool (and (.def_38 n_2 n_4 k_4 ak_2 i_3 i_1 k_2 ak_4) (.def_54 i_1)))
(define-fun .def_57 ((n_2 Int) (n_4 Int) (k_4 Int) (ak_2 Int) (i_3 Int) (i_1 Int) (k_2 Int) (ak_4 Int)) Bool (and (.def_55 n_2 n_4 k_4 ak_2 i_3 i_1 k_2 ak_4) (.def_56 i_1)))
(define-fun .def_59 ((n_2 Int) (n_4 Int) (k_4 Int) (ak_2 Int) (i_3 Int) (i_1 Int) (k_2 Int) (ak_4 Int)) Bool (and (.def_57 n_2 n_4 k_4 ak_2 i_3 i_1 k_2 ak_4) (.def_58 i_1)))
(define-fun .def_61 ((n_2 Int) (n_4 Int) (k_4 Int) (ak_2 Int) (i_3 Int) (i_1 Int) (k_2 Int) (ak_4 Int)) Bool (and (.def_59 n_2 n_4 k_4 ak_2 i_3 i_1 k_2 ak_4) (.def_60 n_2)))
(define-fun .def_111 ((n_2 Int) (n_4 Int) (n_1 Int) (k_4 Int) (ak_2 Int) (i_0 Int) (i_3 Int) (i_1 Int) (k_2 Int) (k_1 Int) (ak_1 Int) (ak_4 Int)) Bool (or (.def_61 n_2 n_4 k_4 ak_2 i_3 i_1 k_2 ak_4) (.def_110 n_4 n_1 k_4 i_0 i_3 k_1 ak_4 ak_1)))
(define-fun .def_113 ((n_2 Int) (n_4 Int) (n_1 Int) (k_4 Int) (ak_2 Int) (i_0 Int) (i_3 Int) (i_1 Int) (k_2 Int) (k_1 Int) (ak_4 Int) (ak_1 Int)) Bool (! (and (.def_111 n_2 n_4 n_1 k_4 ak_2 i_0 i_3 i_1 k_2 k_1 ak_1 ak_4) .def_112) :trans true))
(define-fun .def_113 ((n_2 Int) (n_4 Int) (n_1 Int) (k_4 Int) (ak_2 Int) (i_0 Int) (i_3 Int) (i_1 Int) (k_2 Int) (k_1 Int) (ak_4 Int) (ak_1 Int)) Bool (.def_113 n_2 n_4 n_1 k_4 ak_2 i_0 i_3 i_1 k_2 k_1 ak_4 ak_1))
(define-fun .def_8 ((n_4 Int)) Int (.def_8 n_4))
(define-fun .def_10 ((i_3 Int)) Int (.def_10 i_3))
(define-fun .def_12 ((k_4 Int)) Int (.def_12 k_4))
(define-fun .def_14 ((ak_4 Int)) Int (.def_14 ak_4))
(define-fun .def_135 ((k_4 Int)) Bool (= .def_12 1))
(define-fun .def_136 ((k_4 Int)) Bool (not (.def_135 k_4)))
(define-fun .def_132 ((k_6 Int)) Int (* (- 2) k_6))
(define-fun .def_133 ((i_3 Int) (k_6 Int)) Int (+ .def_10 (.def_132 k_6)))
(define-fun .def_134 ((i_3 Int) (k_6 Int)) Bool (= (.def_133 i_3 k_6) 1))
(define-fun .def_137 ((k_4 Int) (i_3 Int) (k_6 Int)) Bool (and (.def_134 i_3 k_6) (.def_136 k_4)))
(define-fun .def_126 ((k_5 Int)) Int (* (- 2) k_5))
(define-fun .def_127 ((i_3 Int) (k_5 Int)) Int (+ .def_10 (.def_126 k_5)))
(define-fun .def_128 ((i_3 Int) (k_5 Int)) Bool (= (.def_127 i_3 k_5) 0))
(define-fun .def_123 ((k_4 Int)) Bool (= .def_12 0))
(define-fun .def_124 ((k_4 Int)) Bool (not (.def_123 k_4)))
(define-fun .def_129 ((k_4 Int) (i_3 Int) (k_5 Int)) Bool (and (.def_124 k_4) (.def_128 i_3 k_5)))
(define-fun .def_138 ((k_4 Int) (i_3 Int) (k_6 Int) (k_5 Int)) Bool (or (.def_129 k_4 i_3 k_5) (.def_137 k_4 i_3 k_6)))
(define-fun .def_122 () Bool (and .def_18 .def_88))
(define-fun .def_139 ((k_4 Int) (i_3 Int) (k_6 Int) (k_5 Int)) Bool (and .def_122 (.def_138 k_4 i_3 k_6 k_5)))
(define-fun .def_140 ((k_4 Int) (i_3 Int) (k_6 Int) (k_5 Int)) Bool (! (not (.def_139 k_4 i_3 k_6 k_5)) :invar-property 0))
(define-fun .def_140 ((k_4 Int) (i_3 Int) (k_6 Int) (k_5 Int)) Bool (.def_140 k_4 i_3 k_6 k_5))
(assert true)
